p cnf 407 813
e 3 4 12 13 21 22 30 31 39 40 48 49 57 58 66 67 75 76 84 85 93 94 102 103 111 112 120 121 129 130 138 139 147 148 156 157 165 166 174 175 183 184 192 193 201 202 210 211 219 220 228 229 237 238 246 247 255 256 264 265 273 274 282 283 291 292 300 301 309 310 318 319 327 328 336 337 345 346 354 355 363 364 372 373 381 382 390 391 399 400 0
r 0.500000 5 0
r 0.670000 6 0
r 0.250000 7 0
r 0.750000 8 0
r 0.500000 9 0
r 0.500000 14 0
r 0.670000 15 0
r 0.250000 16 0
r 0.750000 17 0
r 0.500000 18 0
r 0.500000 23 0
r 0.670000 24 0
r 0.250000 25 0
r 0.750000 26 0
r 0.500000 27 0
r 0.500000 32 0
r 0.670000 33 0
r 0.250000 34 0
r 0.750000 35 0
r 0.500000 36 0
r 0.500000 41 0
r 0.670000 42 0
r 0.250000 43 0
r 0.750000 44 0
r 0.500000 45 0
r 0.500000 50 0
r 0.670000 51 0
r 0.250000 52 0
r 0.750000 53 0
r 0.500000 54 0
r 0.500000 59 0
r 0.670000 60 0
r 0.250000 61 0
r 0.750000 62 0
r 0.500000 63 0
r 0.500000 68 0
r 0.670000 69 0
r 0.250000 70 0
r 0.750000 71 0
r 0.500000 72 0
r 0.500000 77 0
r 0.670000 78 0
r 0.250000 79 0
r 0.750000 80 0
r 0.500000 81 0
r 0.500000 86 0
r 0.670000 87 0
r 0.250000 88 0
r 0.750000 89 0
r 0.500000 90 0
r 0.500000 95 0
r 0.670000 96 0
r 0.250000 97 0
r 0.750000 98 0
r 0.500000 99 0
r 0.500000 104 0
r 0.670000 105 0
r 0.250000 106 0
r 0.750000 107 0
r 0.500000 108 0
r 0.500000 113 0
r 0.670000 114 0
r 0.250000 115 0
r 0.750000 116 0
r 0.500000 117 0
r 0.500000 122 0
r 0.670000 123 0
r 0.250000 124 0
r 0.750000 125 0
r 0.500000 126 0
r 0.500000 131 0
r 0.670000 132 0
r 0.250000 133 0
r 0.750000 134 0
r 0.500000 135 0
r 0.500000 140 0
r 0.670000 141 0
r 0.250000 142 0
r 0.750000 143 0
r 0.500000 144 0
r 0.500000 149 0
r 0.670000 150 0
r 0.250000 151 0
r 0.750000 152 0
r 0.500000 153 0
r 0.500000 158 0
r 0.670000 159 0
r 0.250000 160 0
r 0.750000 161 0
r 0.500000 162 0
r 0.500000 167 0
r 0.670000 168 0
r 0.250000 169 0
r 0.750000 170 0
r 0.500000 171 0
r 0.500000 176 0
r 0.670000 177 0
r 0.250000 178 0
r 0.750000 179 0
r 0.500000 180 0
r 0.500000 185 0
r 0.670000 186 0
r 0.250000 187 0
r 0.750000 188 0
r 0.500000 189 0
r 0.500000 194 0
r 0.670000 195 0
r 0.250000 196 0
r 0.750000 197 0
r 0.500000 198 0
r 0.500000 203 0
r 0.670000 204 0
r 0.250000 205 0
r 0.750000 206 0
r 0.500000 207 0
r 0.500000 212 0
r 0.670000 213 0
r 0.250000 214 0
r 0.750000 215 0
r 0.500000 216 0
r 0.500000 221 0
r 0.670000 222 0
r 0.250000 223 0
r 0.750000 224 0
r 0.500000 225 0
r 0.500000 230 0
r 0.670000 231 0
r 0.250000 232 0
r 0.750000 233 0
r 0.500000 234 0
r 0.500000 239 0
r 0.670000 240 0
r 0.250000 241 0
r 0.750000 242 0
r 0.500000 243 0
r 0.500000 248 0
r 0.670000 249 0
r 0.250000 250 0
r 0.750000 251 0
r 0.500000 252 0
r 0.500000 257 0
r 0.670000 258 0
r 0.250000 259 0
r 0.750000 260 0
r 0.500000 261 0
r 0.500000 266 0
r 0.670000 267 0
r 0.250000 268 0
r 0.750000 269 0
r 0.500000 270 0
r 0.500000 275 0
r 0.670000 276 0
r 0.250000 277 0
r 0.750000 278 0
r 0.500000 279 0
r 0.500000 284 0
r 0.670000 285 0
r 0.250000 286 0
r 0.750000 287 0
r 0.500000 288 0
r 0.500000 293 0
r 0.670000 294 0
r 0.250000 295 0
r 0.750000 296 0
r 0.500000 297 0
r 0.500000 302 0
r 0.670000 303 0
r 0.250000 304 0
r 0.750000 305 0
r 0.500000 306 0
r 0.500000 311 0
r 0.670000 312 0
r 0.250000 313 0
r 0.750000 314 0
r 0.500000 315 0
r 0.500000 320 0
r 0.670000 321 0
r 0.250000 322 0
r 0.750000 323 0
r 0.500000 324 0
r 0.500000 329 0
r 0.670000 330 0
r 0.250000 331 0
r 0.750000 332 0
r 0.500000 333 0
r 0.500000 338 0
r 0.670000 339 0
r 0.250000 340 0
r 0.750000 341 0
r 0.500000 342 0
r 0.500000 347 0
r 0.670000 348 0
r 0.250000 349 0
r 0.750000 350 0
r 0.500000 351 0
r 0.500000 356 0
r 0.670000 357 0
r 0.250000 358 0
r 0.750000 359 0
r 0.500000 360 0
r 0.500000 365 0
r 0.670000 366 0
r 0.250000 367 0
r 0.750000 368 0
r 0.500000 369 0
r 0.500000 374 0
r 0.670000 375 0
r 0.250000 376 0
r 0.750000 377 0
r 0.500000 378 0
r 0.500000 383 0
r 0.670000 384 0
r 0.250000 385 0
r 0.750000 386 0
r 0.500000 387 0
r 0.500000 392 0
r 0.670000 393 0
r 0.250000 394 0
r 0.750000 395 0
r 0.500000 396 0
r 0.500000 401 0
r 0.670000 402 0
r 0.250000 403 0
r 0.750000 404 0
r 0.500000 405 0
e 1 2 10 11 19 20 28 29 37 38 46 47 55 56 64 65 73 74 82 83 91 92 100 101 109 110 118 119 127 128 136 137 145 146 154 155 163 164 172 173 181 182 190 191 199 200 208 209 217 218 226 227 235 236 244 245 253 254 262 263 271 272 280 281 289 290 298 299 307 308 316 317 325 326 334 335 343 344 352 353 361 362 370 371 379 380 388 389 397 398 406 407 0
-1 0
-2 0
407 0
3 4 0
-3 -4 0
-3 -1 10 0
-3 1 -5 10 0
-3 1 5 -10 0
-4 -1 -2 -8 10 0
-4 -1 -2 8 -10 0
-4 -1 2 -11 10 0
-4 -1 2 11 -9 10 0
-4 -1 2 11 9 -10 0
-4 1 -10 0
-3 -2 11 0
-3 2 -11 0
-4 -2 11 0
-4 2 -1 -6 11 0
-4 2 -1 6 -11 0
-4 2 1 -7 11 0
-4 2 1 7 -11 0
12 13 0
-12 -13 0
-12 -10 19 0
-12 10 -14 19 0
-12 10 14 -19 0
-13 -10 -11 -17 19 0
-13 -10 -11 17 -19 0
-13 -10 11 -20 19 0
-13 -10 11 20 -18 19 0
-13 -10 11 20 18 -19 0
-13 10 -19 0
-12 -11 20 0
-12 11 -20 0
-13 -11 20 0
-13 11 -10 -15 20 0
-13 11 -10 15 -20 0
-13 11 10 -16 20 0
-13 11 10 16 -20 0
21 22 0
-21 -22 0
-21 -19 28 0
-21 19 -23 28 0
-21 19 23 -28 0
-22 -19 -20 -26 28 0
-22 -19 -20 26 -28 0
-22 -19 20 -29 28 0
-22 -19 20 29 -27 28 0
-22 -19 20 29 27 -28 0
-22 19 -28 0
-21 -20 29 0
-21 20 -29 0
-22 -20 29 0
-22 20 -19 -24 29 0
-22 20 -19 24 -29 0
-22 20 19 -25 29 0
-22 20 19 25 -29 0
30 31 0
-30 -31 0
-30 -28 37 0
-30 28 -32 37 0
-30 28 32 -37 0
-31 -28 -29 -35 37 0
-31 -28 -29 35 -37 0
-31 -28 29 -38 37 0
-31 -28 29 38 -36 37 0
-31 -28 29 38 36 -37 0
-31 28 -37 0
-30 -29 38 0
-30 29 -38 0
-31 -29 38 0
-31 29 -28 -33 38 0
-31 29 -28 33 -38 0
-31 29 28 -34 38 0
-31 29 28 34 -38 0
39 40 0
-39 -40 0
-39 -37 46 0
-39 37 -41 46 0
-39 37 41 -46 0
-40 -37 -38 -44 46 0
-40 -37 -38 44 -46 0
-40 -37 38 -47 46 0
-40 -37 38 47 -45 46 0
-40 -37 38 47 45 -46 0
-40 37 -46 0
-39 -38 47 0
-39 38 -47 0
-40 -38 47 0
-40 38 -37 -42 47 0
-40 38 -37 42 -47 0
-40 38 37 -43 47 0
-40 38 37 43 -47 0
48 49 0
-48 -49 0
-48 -46 55 0
-48 46 -50 55 0
-48 46 50 -55 0
-49 -46 -47 -53 55 0
-49 -46 -47 53 -55 0
-49 -46 47 -56 55 0
-49 -46 47 56 -54 55 0
-49 -46 47 56 54 -55 0
-49 46 -55 0
-48 -47 56 0
-48 47 -56 0
-49 -47 56 0
-49 47 -46 -51 56 0
-49 47 -46 51 -56 0
-49 47 46 -52 56 0
-49 47 46 52 -56 0
57 58 0
-57 -58 0
-57 -55 64 0
-57 55 -59 64 0
-57 55 59 -64 0
-58 -55 -56 -62 64 0
-58 -55 -56 62 -64 0
-58 -55 56 -65 64 0
-58 -55 56 65 -63 64 0
-58 -55 56 65 63 -64 0
-58 55 -64 0
-57 -56 65 0
-57 56 -65 0
-58 -56 65 0
-58 56 -55 -60 65 0
-58 56 -55 60 -65 0
-58 56 55 -61 65 0
-58 56 55 61 -65 0
66 67 0
-66 -67 0
-66 -64 73 0
-66 64 -68 73 0
-66 64 68 -73 0
-67 -64 -65 -71 73 0
-67 -64 -65 71 -73 0
-67 -64 65 -74 73 0
-67 -64 65 74 -72 73 0
-67 -64 65 74 72 -73 0
-67 64 -73 0
-66 -65 74 0
-66 65 -74 0
-67 -65 74 0
-67 65 -64 -69 74 0
-67 65 -64 69 -74 0
-67 65 64 -70 74 0
-67 65 64 70 -74 0
75 76 0
-75 -76 0
-75 -73 82 0
-75 73 -77 82 0
-75 73 77 -82 0
-76 -73 -74 -80 82 0
-76 -73 -74 80 -82 0
-76 -73 74 -83 82 0
-76 -73 74 83 -81 82 0
-76 -73 74 83 81 -82 0
-76 73 -82 0
-75 -74 83 0
-75 74 -83 0
-76 -74 83 0
-76 74 -73 -78 83 0
-76 74 -73 78 -83 0
-76 74 73 -79 83 0
-76 74 73 79 -83 0
84 85 0
-84 -85 0
-84 -82 91 0
-84 82 -86 91 0
-84 82 86 -91 0
-85 -82 -83 -89 91 0
-85 -82 -83 89 -91 0
-85 -82 83 -92 91 0
-85 -82 83 92 -90 91 0
-85 -82 83 92 90 -91 0
-85 82 -91 0
-84 -83 92 0
-84 83 -92 0
-85 -83 92 0
-85 83 -82 -87 92 0
-85 83 -82 87 -92 0
-85 83 82 -88 92 0
-85 83 82 88 -92 0
93 94 0
-93 -94 0
-93 -91 100 0
-93 91 -95 100 0
-93 91 95 -100 0
-94 -91 -92 -98 100 0
-94 -91 -92 98 -100 0
-94 -91 92 -101 100 0
-94 -91 92 101 -99 100 0
-94 -91 92 101 99 -100 0
-94 91 -100 0
-93 -92 101 0
-93 92 -101 0
-94 -92 101 0
-94 92 -91 -96 101 0
-94 92 -91 96 -101 0
-94 92 91 -97 101 0
-94 92 91 97 -101 0
102 103 0
-102 -103 0
-102 -100 109 0
-102 100 -104 109 0
-102 100 104 -109 0
-103 -100 -101 -107 109 0
-103 -100 -101 107 -109 0
-103 -100 101 -110 109 0
-103 -100 101 110 -108 109 0
-103 -100 101 110 108 -109 0
-103 100 -109 0
-102 -101 110 0
-102 101 -110 0
-103 -101 110 0
-103 101 -100 -105 110 0
-103 101 -100 105 -110 0
-103 101 100 -106 110 0
-103 101 100 106 -110 0
111 112 0
-111 -112 0
-111 -109 118 0
-111 109 -113 118 0
-111 109 113 -118 0
-112 -109 -110 -116 118 0
-112 -109 -110 116 -118 0
-112 -109 110 -119 118 0
-112 -109 110 119 -117 118 0
-112 -109 110 119 117 -118 0
-112 109 -118 0
-111 -110 119 0
-111 110 -119 0
-112 -110 119 0
-112 110 -109 -114 119 0
-112 110 -109 114 -119 0
-112 110 109 -115 119 0
-112 110 109 115 -119 0
120 121 0
-120 -121 0
-120 -118 127 0
-120 118 -122 127 0
-120 118 122 -127 0
-121 -118 -119 -125 127 0
-121 -118 -119 125 -127 0
-121 -118 119 -128 127 0
-121 -118 119 128 -126 127 0
-121 -118 119 128 126 -127 0
-121 118 -127 0
-120 -119 128 0
-120 119 -128 0
-121 -119 128 0
-121 119 -118 -123 128 0
-121 119 -118 123 -128 0
-121 119 118 -124 128 0
-121 119 118 124 -128 0
129 130 0
-129 -130 0
-129 -127 136 0
-129 127 -131 136 0
-129 127 131 -136 0
-130 -127 -128 -134 136 0
-130 -127 -128 134 -136 0
-130 -127 128 -137 136 0
-130 -127 128 137 -135 136 0
-130 -127 128 137 135 -136 0
-130 127 -136 0
-129 -128 137 0
-129 128 -137 0
-130 -128 137 0
-130 128 -127 -132 137 0
-130 128 -127 132 -137 0
-130 128 127 -133 137 0
-130 128 127 133 -137 0
138 139 0
-138 -139 0
-138 -136 145 0
-138 136 -140 145 0
-138 136 140 -145 0
-139 -136 -137 -143 145 0
-139 -136 -137 143 -145 0
-139 -136 137 -146 145 0
-139 -136 137 146 -144 145 0
-139 -136 137 146 144 -145 0
-139 136 -145 0
-138 -137 146 0
-138 137 -146 0
-139 -137 146 0
-139 137 -136 -141 146 0
-139 137 -136 141 -146 0
-139 137 136 -142 146 0
-139 137 136 142 -146 0
147 148 0
-147 -148 0
-147 -145 154 0
-147 145 -149 154 0
-147 145 149 -154 0
-148 -145 -146 -152 154 0
-148 -145 -146 152 -154 0
-148 -145 146 -155 154 0
-148 -145 146 155 -153 154 0
-148 -145 146 155 153 -154 0
-148 145 -154 0
-147 -146 155 0
-147 146 -155 0
-148 -146 155 0
-148 146 -145 -150 155 0
-148 146 -145 150 -155 0
-148 146 145 -151 155 0
-148 146 145 151 -155 0
156 157 0
-156 -157 0
-156 -154 163 0
-156 154 -158 163 0
-156 154 158 -163 0
-157 -154 -155 -161 163 0
-157 -154 -155 161 -163 0
-157 -154 155 -164 163 0
-157 -154 155 164 -162 163 0
-157 -154 155 164 162 -163 0
-157 154 -163 0
-156 -155 164 0
-156 155 -164 0
-157 -155 164 0
-157 155 -154 -159 164 0
-157 155 -154 159 -164 0
-157 155 154 -160 164 0
-157 155 154 160 -164 0
165 166 0
-165 -166 0
-165 -163 172 0
-165 163 -167 172 0
-165 163 167 -172 0
-166 -163 -164 -170 172 0
-166 -163 -164 170 -172 0
-166 -163 164 -173 172 0
-166 -163 164 173 -171 172 0
-166 -163 164 173 171 -172 0
-166 163 -172 0
-165 -164 173 0
-165 164 -173 0
-166 -164 173 0
-166 164 -163 -168 173 0
-166 164 -163 168 -173 0
-166 164 163 -169 173 0
-166 164 163 169 -173 0
174 175 0
-174 -175 0
-174 -172 181 0
-174 172 -176 181 0
-174 172 176 -181 0
-175 -172 -173 -179 181 0
-175 -172 -173 179 -181 0
-175 -172 173 -182 181 0
-175 -172 173 182 -180 181 0
-175 -172 173 182 180 -181 0
-175 172 -181 0
-174 -173 182 0
-174 173 -182 0
-175 -173 182 0
-175 173 -172 -177 182 0
-175 173 -172 177 -182 0
-175 173 172 -178 182 0
-175 173 172 178 -182 0
183 184 0
-183 -184 0
-183 -181 190 0
-183 181 -185 190 0
-183 181 185 -190 0
-184 -181 -182 -188 190 0
-184 -181 -182 188 -190 0
-184 -181 182 -191 190 0
-184 -181 182 191 -189 190 0
-184 -181 182 191 189 -190 0
-184 181 -190 0
-183 -182 191 0
-183 182 -191 0
-184 -182 191 0
-184 182 -181 -186 191 0
-184 182 -181 186 -191 0
-184 182 181 -187 191 0
-184 182 181 187 -191 0
192 193 0
-192 -193 0
-192 -190 199 0
-192 190 -194 199 0
-192 190 194 -199 0
-193 -190 -191 -197 199 0
-193 -190 -191 197 -199 0
-193 -190 191 -200 199 0
-193 -190 191 200 -198 199 0
-193 -190 191 200 198 -199 0
-193 190 -199 0
-192 -191 200 0
-192 191 -200 0
-193 -191 200 0
-193 191 -190 -195 200 0
-193 191 -190 195 -200 0
-193 191 190 -196 200 0
-193 191 190 196 -200 0
201 202 0
-201 -202 0
-201 -199 208 0
-201 199 -203 208 0
-201 199 203 -208 0
-202 -199 -200 -206 208 0
-202 -199 -200 206 -208 0
-202 -199 200 -209 208 0
-202 -199 200 209 -207 208 0
-202 -199 200 209 207 -208 0
-202 199 -208 0
-201 -200 209 0
-201 200 -209 0
-202 -200 209 0
-202 200 -199 -204 209 0
-202 200 -199 204 -209 0
-202 200 199 -205 209 0
-202 200 199 205 -209 0
210 211 0
-210 -211 0
-210 -208 217 0
-210 208 -212 217 0
-210 208 212 -217 0
-211 -208 -209 -215 217 0
-211 -208 -209 215 -217 0
-211 -208 209 -218 217 0
-211 -208 209 218 -216 217 0
-211 -208 209 218 216 -217 0
-211 208 -217 0
-210 -209 218 0
-210 209 -218 0
-211 -209 218 0
-211 209 -208 -213 218 0
-211 209 -208 213 -218 0
-211 209 208 -214 218 0
-211 209 208 214 -218 0
219 220 0
-219 -220 0
-219 -217 226 0
-219 217 -221 226 0
-219 217 221 -226 0
-220 -217 -218 -224 226 0
-220 -217 -218 224 -226 0
-220 -217 218 -227 226 0
-220 -217 218 227 -225 226 0
-220 -217 218 227 225 -226 0
-220 217 -226 0
-219 -218 227 0
-219 218 -227 0
-220 -218 227 0
-220 218 -217 -222 227 0
-220 218 -217 222 -227 0
-220 218 217 -223 227 0
-220 218 217 223 -227 0
228 229 0
-228 -229 0
-228 -226 235 0
-228 226 -230 235 0
-228 226 230 -235 0
-229 -226 -227 -233 235 0
-229 -226 -227 233 -235 0
-229 -226 227 -236 235 0
-229 -226 227 236 -234 235 0
-229 -226 227 236 234 -235 0
-229 226 -235 0
-228 -227 236 0
-228 227 -236 0
-229 -227 236 0
-229 227 -226 -231 236 0
-229 227 -226 231 -236 0
-229 227 226 -232 236 0
-229 227 226 232 -236 0
237 238 0
-237 -238 0
-237 -235 244 0
-237 235 -239 244 0
-237 235 239 -244 0
-238 -235 -236 -242 244 0
-238 -235 -236 242 -244 0
-238 -235 236 -245 244 0
-238 -235 236 245 -243 244 0
-238 -235 236 245 243 -244 0
-238 235 -244 0
-237 -236 245 0
-237 236 -245 0
-238 -236 245 0
-238 236 -235 -240 245 0
-238 236 -235 240 -245 0
-238 236 235 -241 245 0
-238 236 235 241 -245 0
246 247 0
-246 -247 0
-246 -244 253 0
-246 244 -248 253 0
-246 244 248 -253 0
-247 -244 -245 -251 253 0
-247 -244 -245 251 -253 0
-247 -244 245 -254 253 0
-247 -244 245 254 -252 253 0
-247 -244 245 254 252 -253 0
-247 244 -253 0
-246 -245 254 0
-246 245 -254 0
-247 -245 254 0
-247 245 -244 -249 254 0
-247 245 -244 249 -254 0
-247 245 244 -250 254 0
-247 245 244 250 -254 0
255 256 0
-255 -256 0
-255 -253 262 0
-255 253 -257 262 0
-255 253 257 -262 0
-256 -253 -254 -260 262 0
-256 -253 -254 260 -262 0
-256 -253 254 -263 262 0
-256 -253 254 263 -261 262 0
-256 -253 254 263 261 -262 0
-256 253 -262 0
-255 -254 263 0
-255 254 -263 0
-256 -254 263 0
-256 254 -253 -258 263 0
-256 254 -253 258 -263 0
-256 254 253 -259 263 0
-256 254 253 259 -263 0
264 265 0
-264 -265 0
-264 -262 271 0
-264 262 -266 271 0
-264 262 266 -271 0
-265 -262 -263 -269 271 0
-265 -262 -263 269 -271 0
-265 -262 263 -272 271 0
-265 -262 263 272 -270 271 0
-265 -262 263 272 270 -271 0
-265 262 -271 0
-264 -263 272 0
-264 263 -272 0
-265 -263 272 0
-265 263 -262 -267 272 0
-265 263 -262 267 -272 0
-265 263 262 -268 272 0
-265 263 262 268 -272 0
273 274 0
-273 -274 0
-273 -271 280 0
-273 271 -275 280 0
-273 271 275 -280 0
-274 -271 -272 -278 280 0
-274 -271 -272 278 -280 0
-274 -271 272 -281 280 0
-274 -271 272 281 -279 280 0
-274 -271 272 281 279 -280 0
-274 271 -280 0
-273 -272 281 0
-273 272 -281 0
-274 -272 281 0
-274 272 -271 -276 281 0
-274 272 -271 276 -281 0
-274 272 271 -277 281 0
-274 272 271 277 -281 0
282 283 0
-282 -283 0
-282 -280 289 0
-282 280 -284 289 0
-282 280 284 -289 0
-283 -280 -281 -287 289 0
-283 -280 -281 287 -289 0
-283 -280 281 -290 289 0
-283 -280 281 290 -288 289 0
-283 -280 281 290 288 -289 0
-283 280 -289 0
-282 -281 290 0
-282 281 -290 0
-283 -281 290 0
-283 281 -280 -285 290 0
-283 281 -280 285 -290 0
-283 281 280 -286 290 0
-283 281 280 286 -290 0
291 292 0
-291 -292 0
-291 -289 298 0
-291 289 -293 298 0
-291 289 293 -298 0
-292 -289 -290 -296 298 0
-292 -289 -290 296 -298 0
-292 -289 290 -299 298 0
-292 -289 290 299 -297 298 0
-292 -289 290 299 297 -298 0
-292 289 -298 0
-291 -290 299 0
-291 290 -299 0
-292 -290 299 0
-292 290 -289 -294 299 0
-292 290 -289 294 -299 0
-292 290 289 -295 299 0
-292 290 289 295 -299 0
300 301 0
-300 -301 0
-300 -298 307 0
-300 298 -302 307 0
-300 298 302 -307 0
-301 -298 -299 -305 307 0
-301 -298 -299 305 -307 0
-301 -298 299 -308 307 0
-301 -298 299 308 -306 307 0
-301 -298 299 308 306 -307 0
-301 298 -307 0
-300 -299 308 0
-300 299 -308 0
-301 -299 308 0
-301 299 -298 -303 308 0
-301 299 -298 303 -308 0
-301 299 298 -304 308 0
-301 299 298 304 -308 0
309 310 0
-309 -310 0
-309 -307 316 0
-309 307 -311 316 0
-309 307 311 -316 0
-310 -307 -308 -314 316 0
-310 -307 -308 314 -316 0
-310 -307 308 -317 316 0
-310 -307 308 317 -315 316 0
-310 -307 308 317 315 -316 0
-310 307 -316 0
-309 -308 317 0
-309 308 -317 0
-310 -308 317 0
-310 308 -307 -312 317 0
-310 308 -307 312 -317 0
-310 308 307 -313 317 0
-310 308 307 313 -317 0
318 319 0
-318 -319 0
-318 -316 325 0
-318 316 -320 325 0
-318 316 320 -325 0
-319 -316 -317 -323 325 0
-319 -316 -317 323 -325 0
-319 -316 317 -326 325 0
-319 -316 317 326 -324 325 0
-319 -316 317 326 324 -325 0
-319 316 -325 0
-318 -317 326 0
-318 317 -326 0
-319 -317 326 0
-319 317 -316 -321 326 0
-319 317 -316 321 -326 0
-319 317 316 -322 326 0
-319 317 316 322 -326 0
327 328 0
-327 -328 0
-327 -325 334 0
-327 325 -329 334 0
-327 325 329 -334 0
-328 -325 -326 -332 334 0
-328 -325 -326 332 -334 0
-328 -325 326 -335 334 0
-328 -325 326 335 -333 334 0
-328 -325 326 335 333 -334 0
-328 325 -334 0
-327 -326 335 0
-327 326 -335 0
-328 -326 335 0
-328 326 -325 -330 335 0
-328 326 -325 330 -335 0
-328 326 325 -331 335 0
-328 326 325 331 -335 0
336 337 0
-336 -337 0
-336 -334 343 0
-336 334 -338 343 0
-336 334 338 -343 0
-337 -334 -335 -341 343 0
-337 -334 -335 341 -343 0
-337 -334 335 -344 343 0
-337 -334 335 344 -342 343 0
-337 -334 335 344 342 -343 0
-337 334 -343 0
-336 -335 344 0
-336 335 -344 0
-337 -335 344 0
-337 335 -334 -339 344 0
-337 335 -334 339 -344 0
-337 335 334 -340 344 0
-337 335 334 340 -344 0
345 346 0
-345 -346 0
-345 -343 352 0
-345 343 -347 352 0
-345 343 347 -352 0
-346 -343 -344 -350 352 0
-346 -343 -344 350 -352 0
-346 -343 344 -353 352 0
-346 -343 344 353 -351 352 0
-346 -343 344 353 351 -352 0
-346 343 -352 0
-345 -344 353 0
-345 344 -353 0
-346 -344 353 0
-346 344 -343 -348 353 0
-346 344 -343 348 -353 0
-346 344 343 -349 353 0
-346 344 343 349 -353 0
354 355 0
-354 -355 0
-354 -352 361 0
-354 352 -356 361 0
-354 352 356 -361 0
-355 -352 -353 -359 361 0
-355 -352 -353 359 -361 0
-355 -352 353 -362 361 0
-355 -352 353 362 -360 361 0
-355 -352 353 362 360 -361 0
-355 352 -361 0
-354 -353 362 0
-354 353 -362 0
-355 -353 362 0
-355 353 -352 -357 362 0
-355 353 -352 357 -362 0
-355 353 352 -358 362 0
-355 353 352 358 -362 0
363 364 0
-363 -364 0
-363 -361 370 0
-363 361 -365 370 0
-363 361 365 -370 0
-364 -361 -362 -368 370 0
-364 -361 -362 368 -370 0
-364 -361 362 -371 370 0
-364 -361 362 371 -369 370 0
-364 -361 362 371 369 -370 0
-364 361 -370 0
-363 -362 371 0
-363 362 -371 0
-364 -362 371 0
-364 362 -361 -366 371 0
-364 362 -361 366 -371 0
-364 362 361 -367 371 0
-364 362 361 367 -371 0
372 373 0
-372 -373 0
-372 -370 379 0
-372 370 -374 379 0
-372 370 374 -379 0
-373 -370 -371 -377 379 0
-373 -370 -371 377 -379 0
-373 -370 371 -380 379 0
-373 -370 371 380 -378 379 0
-373 -370 371 380 378 -379 0
-373 370 -379 0
-372 -371 380 0
-372 371 -380 0
-373 -371 380 0
-373 371 -370 -375 380 0
-373 371 -370 375 -380 0
-373 371 370 -376 380 0
-373 371 370 376 -380 0
381 382 0
-381 -382 0
-381 -379 388 0
-381 379 -383 388 0
-381 379 383 -388 0
-382 -379 -380 -386 388 0
-382 -379 -380 386 -388 0
-382 -379 380 -389 388 0
-382 -379 380 389 -387 388 0
-382 -379 380 389 387 -388 0
-382 379 -388 0
-381 -380 389 0
-381 380 -389 0
-382 -380 389 0
-382 380 -379 -384 389 0
-382 380 -379 384 -389 0
-382 380 379 -385 389 0
-382 380 379 385 -389 0
390 391 0
-390 -391 0
-390 -388 397 0
-390 388 -392 397 0
-390 388 392 -397 0
-391 -388 -389 -395 397 0
-391 -388 -389 395 -397 0
-391 -388 389 -398 397 0
-391 -388 389 398 -396 397 0
-391 -388 389 398 396 -397 0
-391 388 -397 0
-390 -389 398 0
-390 389 -398 0
-391 -389 398 0
-391 389 -388 -393 398 0
-391 389 -388 393 -398 0
-391 389 388 -394 398 0
-391 389 388 394 -398 0
399 400 0
-399 -400 0
-399 -397 406 0
-399 397 -401 406 0
-399 397 401 -406 0
-400 -397 -398 -404 406 0
-400 -397 -398 404 -406 0
-400 -397 398 -407 406 0
-400 -397 398 407 -405 406 0
-400 -397 398 407 405 -406 0
-400 397 -406 0
-399 -398 407 0
-399 398 -407 0
-400 -398 407 0
-400 398 -397 -402 407 0
-400 398 -397 402 -407 0
-400 398 397 -403 407 0
-400 398 397 403 -407 0
